NAME : tutorial-03-capacitated-hard
COMMENT : Geoffrey De Smet - OptaPlanner VRP demo 02
TYPE : CVRP
DIMENSION : 8
EDGE_WEIGHT_TYPE : EUC_2D 
CAPACITY : 100
NODE_COORD_SECTION 
 1 50 50
 2 45 100
 3 30 80
 4 70 85
 5 60 60
 6 35 10
 7 30 30
 8 45 20
DEMAND_SECTION
1 0
2 20
3 20
4 20
5 20
6 20
7 50
8 50
DEPOT_SECTION
 1  
 -1  
VEHICLES : 2
EOF
